5 572 573 0 4 3 2 1 458 457 456 455 454 438 437 436 435 434 433 432 430 431 429 428 427 426 425 424 423 422 421 420 419 417 418 410 411 412 356 402 401 360 359 358 357 355 354 353 352 413 414 416 415 351 350 349 348 347 345 346 362 361 363 364 399 400 403 404 405 406 407 408 409 384 383 382 386 385 387 388 389 390 392 391 393 394 397 398 370 369 368 365 344 343 342 366 367 327 328 329 326 325 324 323 322 321 320 319 317 318 305 306 304 303 307 308 309 310 311 451 312 313 316 314 315 374 373 372 371 396 395 375 376 377 378 379 380 381 447 448 450 441 449 446 445 444 443 442 439 440 453 452 499 500 501 498 502 503 504 505 506 507 508 302 301 300 299 298 297 296 295 294 293 292 291 330 331 332 340 341 339 338 337 336 333 335 334 283 284 285 286 287 280 281 282 279 278 277 276 288 289 290 275 274 273 272 269 270 268 271 267 266 265 264 263 262 261 260 259 258 257 256 255 253 254 252 251 250 249 248 241 242 243 244 245 247 246 238 239 240 237 509 510 511 513 512 527 528 236 235 234 232 233 530 529 490 486 485 484 536 537 539 538 534 535 487 488 489 531 532 533 231 230 229 228 227 189 225 226 190 191 192 219 218 220 221 222 224 223 217 216 215 214 213 212 211 210 209 205 206 207 208 203 204 202 201 200 199 198 197 196 195 194 193 184 185 183 182 186 188 187 540 176 177 178 179 181 180 169 171 170 172 175 174 173 108 109 110 111 112 161 160 162 168 163 167 166 164 165 154 155 156 159 157 153 147 148 152 149 150 151 141 142 143 144 146 145 158 136 140 139 138 137 135 134 133 132 131 113 114 115 116 130 129 128 127 126 125 124 117 118 119 120 121 122 123 71 70 69 68 67 66 65 72 73 74 75 64 76 77 88 89 90 87 86 85 50 51 84 83 82 57 81 80 79 78 62 63 61 60 59 58 56 55 53 52 54 49 48 47 44 43 42 39 41 40 38 37 36 32 30 31 22 23 12 13 21 24 25 26 27 28 29 34 33 35 558 557 556 555 45 46 91 92 93 94 95 96 97 554 553 552 99 98 102 100 101 551 550 559 560 561 562 563 565 566 564 549 548 545 546 547 103 104 105 106 107 542 541 543 544 478 477 479 480 476 475 482 481 483 493 524 525 492 491 526 523 521 522 514 515 516 517 520 519 518 494 495 470 496 497 465 464 463 462 461 459 460 571 466 467 468 469 471 472 473 474 567 570 569 568 20 19 18 17 16 15 14 11 10 9 8 7 6